c t wmc
c file mc2023_track2_171.cnf
p cnf 100 300
-80 -55 -35 0
-76 -95 89 0
-20 -2 -81 0
-65 -90 15 0
-48 -93 -16 0
89 -73 13 0
-24 -53 -28 0
-57 -20 -18 0
53 -21 30 0
-4 78 -100 0
87 30 22 0
72 -65 -91 0
51 74 -63 0
44 10 -78 0
-9 -33 11 0
11 16 -88 0
-62 -5 -30 0
-82 -26 52 0
-57 -86 -6 0
-73 -51 99 0
14 100 11 0
-93 76 -15 0
74 -29 66 0
1 21 87 0
-94 38 74 0
-10 99 -18 0
52 81 -17 0
-43 -97 -7 0
11 -28 66 0
89 53 -70 0
-3 50 -4 0
-94 -45 64 0
25 -4 30 0
-61 45 47 0
-60 10 68 0
-16 47 -78 0
-44 -68 -88 0
50 91 -3 0
-96 -4 -30 0
46 40 -57 0
-81 -27 -24 0
88 54 -76 0
-46 -62 -69 0
-36 -99 -63 0
41 -19 74 0
97 25 -71 0
-12 45 79 0
-70 -77 -53 0
-70 -47 -53 0
-36 -83 -90 0
69 -29 -56 0
-51 -82 98 0
-53 -22 38 0
27 -77 76 0
47 17 37 0
-65 -85 -73 0
-4 -55 -83 0
-69 -85 17 0
-83 -12 -23 0
-88 -94 -15 0
50 -93 -79 0
29 -85 -53 0
-87 -36 58 0
30 98 -64 0
15 85 50 0
34 37 -74 0
97 33 10 0
-7 -79 -94 0
8 -53 -82 0
-67 76 98 0
38 -45 -47 0
-12 40 59 0
64 73 94 0
46 -12 87 0
78 42 -70 0
-70 69 38 0
86 -99 69 0
87 -85 35 0
1 10 -77 0
-29 48 73 0
16 -23 40 0
-8 -39 -47 0
-42 25 66 0
5 -78 23 0
64 88 -28 0
52 100 -41 0
-41 9 14 0
-57 20 78 0
-3 -68 -57 0
-12 46 2 0
-38 -54 86 0
56 -55 -95 0
45 -12 -75 0
-53 -81 67 0
-45 1 -17 0
1 -84 50 0
-48 -94 9 0
-48 85 89 0
94 41 -6 0
33 7 8 0
-9 -79 61 0
-62 70 28 0
-76 -66 -39 0
-20 -69 -43 0
4 -24 61 0
9 -44 -39 0
-23 16 15 0
-17 -25 90 0
-65 -69 76 0
-67 21 89 0
-93 -44 -58 0
-85 77 27 0
87 81 77 0
-52 45 -72 0
-72 -46 45 0
68 19 -36 0
58 4 50 0
64 16 -52 0
-30 -85 5 0
-66 -67 -38 0
1 -62 57 0
-75 -13 -30 0
-15 -35 -48 0
-63 -32 -82 0
-53 92 -20 0
-8 -60 -51 0
-92 60 27 0
-42 -18 -13 0
96 -99 86 0
21 -73 74 0
-71 -97 -20 0
6 -59 89 0
-88 74 2 0
34 -31 82 0
50 56 -69 0
84 -39 37 0
-53 56 98 0
-26 4 -52 0
7 -46 25 0
13 -66 74 0
-14 15 91 0
40 -88 50 0
47 56 79 0
-78 14 -81 0
94 83 47 0
49 -75 89 0
-13 -81 89 0
-39 98 60 0
73 30 -71 0
-18 -13 -79 0
-70 27 91 0
-91 -15 -53 0
-12 -36 -37 0
-37 -45 -82 0
-78 19 -75 0
10 45 -51 0
-76 96 55 0
-66 68 69 0
-7 -100 -17 0
-55 -44 49 0
-100 -4 -31 0
-50 84 -58 0
-49 -54 -61 0
1 -20 52 0
10 -61 -14 0
-86 16 24 0
56 87 90 0
-81 70 -9 0
-19 50 -83 0
33 -83 45 0
-26 -4 -78 0
-89 42 49 0
38 87 84 0
15 37 -76 0
45 94 -93 0
12 -53 -84 0
-98 -53 1 0
-5 -61 -85 0
-17 -84 -57 0
50 20 -4 0
51 -58 37 0
-6 83 -95 0
23 99 29 0
54 -51 3 0
86 89 59 0
-61 43 -10 0
-6 8 28 0
19 63 -44 0
-7 -34 -29 0
-61 70 -44 0
-72 -8 45 0
-48 -17 62 0
56 -24 -79 0
-63 -64 -98 0
13 -54 42 0
25 2 48 0
-2 -68 -65 0
-29 -60 10 0
53 -48 31 0
50 -27 -43 0
79 -62 33 0
73 -87 60 0
-42 -35 98 0
98 24 -80 0
-12 -48 -30 0
54 37 -30 0
-33 25 -71 0
61 -51 86 0
17 78 -94 0
35 -17 31 0
-43 -26 67 0
88 92 44 0
40 -58 -17 0
-17 -77 -32 0
1 -24 48 0
55 -93 95 0
91 37 60 0
-85 -71 61 0
99 -6 -21 0
-92 -52 18 0
61 -53 38 0
17 76 74 0
76 81 50 0
57 -66 -29 0
-71 -86 -94 0
37 49 -45 0
-89 91 -65 0
13 93 30 0
-41 -56 -20 0
-4 93 5 0
-8 99 30 0
37 -19 76 0
11 56 84 0
38 -53 61 0
-81 56 59 0
14 61 40 0
-29 63 -81 0
79 -23 49 0
-29 -25 -94 0
-81 30 -29 0
-1 14 74 0
83 -68 75 0
-47 -89 13 0
-23 -20 -8 0
59 49 -80 0
10 71 77 0
-81 -56 96 0
72 3 -12 0
-42 -36 47 0
-66 27 -34 0
27 32 56 0
33 49 13 0
91 31 6 0
-71 -39 -42 0
61 13 -6 0
46 -70 38 0
-32 -61 -63 0
12 -68 -62 0
-94 -1 -78 0
18 -53 -51 0
-15 -63 84 0
1 17 3 0
64 -34 -59 0
-63 21 -28 0
-42 46 -29 0
-15 10 -84 0
-44 -10 28 0
-95 76 -91 0
-17 -12 4 0
38 -45 31 0
-41 -43 -16 0
-51 -49 -17 0
15 -29 -76 0
63 -93 -32 0
-38 -80 95 0
-6 40 -69 0
-53 90 77 0
-40 60 -67 0
-2 -40 -66 0
-18 -89 -63 0
-65 29 -73 0
-54 -63 67 0
-74 3 94 0
83 -12 -80 0
-32 52 3 0
-63 -3 -44 0
11 33 -58 0
-57 -63 99 0
-83 -75 -60 0
38 -30 -89 0
88 -8 -39 0
28 20 3 0
-83 27 70 0
-41 -94 55 0
69 9 11 0
14 -5 88 0
21 38 60 0
86 85 33 0
-96 78 56 0
87 -98 -99 0
c p weight 4 0.48832523 0
c p weight -4 0.51167477 0
c p weight 30 0.56153914 0
c p weight -30 0.43846086 0
c p weight 1 1 0
c p weight -1 1 0
c p weight 2 1 0
c p weight -2 1 0
c p weight 3 1 0
c p weight -3 1 0
c p weight 5 1 0
c p weight -5 1 0
c p weight 6 1 0
c p weight -6 1 0
c p weight 7 1 0
c p weight -7 1 0
c p weight 8 1 0
c p weight -8 1 0
c p weight 9 1 0
c p weight -9 1 0
c p weight 10 1 0
c p weight -10 1 0
c p weight 11 1 0
c p weight -11 1 0
c p weight 12 1 0
c p weight -12 1 0
c p weight 13 1 0
c p weight -13 1 0
c p weight 14 1 0
c p weight -14 1 0
c p weight 15 1 0
c p weight -15 1 0
c p weight 16 1 0
c p weight -16 1 0
c p weight 17 1 0
c p weight -17 1 0
c p weight 18 1 0
c p weight -18 1 0
c p weight 19 1 0
c p weight -19 1 0
c p weight 20 1 0
c p weight -20 1 0
c p weight 21 1 0
c p weight -21 1 0
c p weight 22 1 0
c p weight -22 1 0
c p weight 23 1 0
c p weight -23 1 0
c p weight 24 1 0
c p weight -24 1 0
c p weight 25 1 0
c p weight -25 1 0
c p weight 26 1 0
c p weight -26 1 0
c p weight 27 1 0
c p weight -27 1 0
c p weight 28 1 0
c p weight -28 1 0
c p weight 29 1 0
c p weight -29 1 0
c p weight 31 1 0
c p weight -31 1 0
c p weight 32 1 0
c p weight -32 1 0
c p weight 33 1 0
c p weight -33 1 0
c p weight 34 1 0
c p weight -34 1 0
c p weight 35 1 0
c p weight -35 1 0
c p weight 36 1 0
c p weight -36 1 0
c p weight 37 1 0
c p weight -37 1 0
c p weight 38 1 0
c p weight -38 1 0
c p weight 39 1 0
c p weight -39 1 0
c p weight 40 1 0
c p weight -40 1 0
c p weight 41 1 0
c p weight -41 1 0
c p weight 42 1 0
c p weight -42 1 0
c p weight 43 1 0
c p weight -43 1 0
c p weight 44 1 0
c p weight -44 1 0
c p weight 45 1 0
c p weight -45 1 0
c p weight 46 1 0
c p weight -46 1 0
c p weight 47 1 0
c p weight -47 1 0
c p weight 48 1 0
c p weight -48 1 0
c p weight 49 1 0
c p weight -49 1 0
c p weight 50 1 0
c p weight -50 1 0
c p weight 51 1 0
c p weight -51 1 0
c p weight 52 1 0
c p weight -52 1 0
c p weight 53 1 0
c p weight -53 1 0
c p weight 54 1 0
c p weight -54 1 0
c p weight 55 1 0
c p weight -55 1 0
c p weight 56 1 0
c p weight -56 1 0
c p weight 57 1 0
c p weight -57 1 0
c p weight 58 1 0
c p weight -58 1 0
c p weight 59 1 0
c p weight -59 1 0
c p weight 60 1 0
c p weight -60 1 0
c p weight 61 1 0
c p weight -61 1 0
c p weight 62 1 0
c p weight -62 1 0
c p weight 63 1 0
c p weight -63 1 0
c p weight 64 1 0
c p weight -64 1 0
c p weight 65 1 0
c p weight -65 1 0
c p weight 66 1 0
c p weight -66 1 0
c p weight 67 1 0
c p weight -67 1 0
c p weight 68 1 0
c p weight -68 1 0
c p weight 69 1 0
c p weight -69 1 0
c p weight 70 1 0
c p weight -70 1 0
c p weight 71 1 0
c p weight -71 1 0
c p weight 72 1 0
c p weight -72 1 0
c p weight 73 1 0
c p weight -73 1 0
c p weight 74 1 0
c p weight -74 1 0
c p weight 75 1 0
c p weight -75 1 0
c p weight 76 1 0
c p weight -76 1 0
c p weight 77 1 0
c p weight -77 1 0
c p weight 78 1 0
c p weight -78 1 0
c p weight 79 1 0
c p weight -79 1 0
c p weight 80 1 0
c p weight -80 1 0
c p weight 81 1 0
c p weight -81 1 0
c p weight 82 1 0
c p weight -82 1 0
c p weight 83 1 0
c p weight -83 1 0
c p weight 84 1 0
c p weight -84 1 0
c p weight 85 1 0
c p weight -85 1 0
c p weight 86 1 0
c p weight -86 1 0
c p weight 87 1 0
c p weight -87 1 0
c p weight 88 1 0
c p weight -88 1 0
c p weight 89 1 0
c p weight -89 1 0
c p weight 90 1 0
c p weight -90 1 0
c p weight 91 1 0
c p weight -91 1 0
c p weight 92 1 0
c p weight -92 1 0
c p weight 93 1 0
c p weight -93 1 0
c p weight 94 1 0
c p weight -94 1 0
c p weight 95 1 0
c p weight -95 1 0
c p weight 96 1 0
c p weight -96 1 0
c p weight 97 1 0
c p weight -97 1 0
c p weight 98 1 0
c p weight -98 1 0
c p weight 99 1 0
c p weight -99 1 0
c p weight 100 1 0
c p weight -100 1 0
